c WMC file for PBN ISCAS/c432_distill_ISCAS/c432_miter written by probABC
p cnf 314 825
40 20 -22 0
-40 -20 0
-40 22 0
41 1 -2 0
-41 -1 0
-41 2 0
42 12 -14 0
-42 -12 0
-42 14 0
43 28 -30 0
-43 -28 0
-43 30 0
44 16 -18 0
-44 -16 0
-44 18 0
45 24 -26 0
-45 -24 0
-45 26 0
46 8 -10 0
-46 -8 0
-46 10 0
47 4 -6 0
-47 -4 0
-47 6 0
48 32 -34 0
-48 -32 0
-48 34 0
49 40 41 0
-49 -40 0
-49 -41 0
50 42 43 0
-50 -42 0
-50 -43 0
51 44 45 0
-51 -44 0
-51 -45 0
52 46 47 0
-52 -46 0
-52 -47 0
53 48 -52 0
-53 -48 0
-53 52 0
54 -50 -51 0
-54 50 0
-54 51 0
55 -49 -54 0
-55 49 0
-55 54 0
56 -53 -55 0
-56 53 0
-56 55 0
57 -1 56 0
-57 1 0
-57 -56 0
58 -2 57 0
-58 2 0
-58 -57 0
59 -4 56 0
-59 4 0
-59 -56 0
60 -6 59 0
-60 6 0
-60 -59 0
61 7 -60 0
-61 -7 0
-61 60 0
62 -8 56 0
-62 8 0
-62 -56 0
63 -10 62 0
-63 10 0
-63 -62 0
64 11 -63 0
-64 -11 0
-64 63 0
65 3 -58 0
-65 -3 0
-65 58 0
66 -12 56 0
-66 12 0
-66 -56 0
67 -14 66 0
-67 14 0
-67 -66 0
68 15 -67 0
-68 -15 0
-68 67 0
69 45 -56 0
-69 -45 0
-69 56 0
70 -45 56 0
-70 45 0
-70 -56 0
71 69 70 0
-71 -69 0
-71 -70 0
72 -26 27 0
-72 26 0
-72 -27 0
73 71 -72 0
-73 -71 0
-73 72 0
74 -28 56 0
-74 28 0
-74 -56 0
75 -30 74 0
-75 30 0
-75 -74 0
76 31 -75 0
-76 -31 0
-76 75 0
77 -20 56 0
-77 20 0
-77 -56 0
78 -22 77 0
-78 22 0
-78 -77 0
79 23 -78 0
-79 -23 0
-79 78 0
80 -16 56 0
-80 16 0
-80 -56 0
81 -18 80 0
-81 18 0
-81 -80 0
82 19 -81 0
-82 -19 0
-82 81 0
83 61 64 0
-83 -61 0
-83 -64 0
84 65 68 0
-84 -65 0
-84 -68 0
85 73 76 0
-85 -73 0
-85 -76 0
86 79 82 0
-86 -79 0
-86 -82 0
87 -85 -86 0
-87 85 0
-87 86 0
88 -83 -84 0
-88 83 0
-88 84 0
89 -87 -88 0
-89 87 0
-89 88 0
90 -34 35 0
-90 34 0
-90 -35 0
91 -37 -90 0
-91 37 0
-91 90 0
92 48 56 0
-92 -48 0
-92 -56 0
93 37 90 0
-93 -37 0
-93 -90 0
94 91 93 0
-94 -91 0
-94 -93 0
95 92 -94 0
-95 -92 0
-95 94 0
96 -89 95 0
-96 89 0
-96 -95 0
97 -3 96 0
-97 3 0
-97 -96 0
98 -58 97 0
-98 58 0
-98 -97 0
99 -19 96 0
-99 19 0
-99 -96 0
100 -82 -96 0
-100 82 0
-100 96 0
101 21 -81 0
-101 -21 0
-101 81 0
102 99 -101 0
-102 -99 0
-102 101 0
103 100 -102 0
-103 -100 0
-103 102 0
104 17 -67 0
-104 -17 0
-104 67 0
105 -68 -96 0
-105 68 0
-105 96 0
106 -15 96 0
-106 15 0
-106 -96 0
107 -104 105 0
-107 104 0
-107 -105 0
108 106 -107 0
-108 -106 0
-108 107 0
109 -7 96 0
-109 7 0
-109 -96 0
110 -61 -96 0
-110 61 0
-110 96 0
111 9 -60 0
-111 -9 0
-111 60 0
112 109 -111 0
-112 -109 0
-112 111 0
113 110 -112 0
-113 -110 0
-113 112 0
114 13 -63 0
-114 -13 0
-114 63 0
115 -64 -96 0
-115 64 0
-115 96 0
116 -11 96 0
-116 11 0
-116 -96 0
117 -114 115 0
-117 114 0
-117 -115 0
118 116 -117 0
-118 -116 0
-118 117 0
119 -32 56 0
-119 32 0
-119 -56 0
120 -34 119 0
-120 34 0
-120 -119 0
121 36 -120 0
-121 -36 0
-121 120 0
122 89 95 0
-122 -89 0
-122 -95 0
123 -121 122 0
-123 121 0
-123 -122 0
124 -79 -96 0
-124 79 0
-124 96 0
125 -23 96 0
-125 23 0
-125 -96 0
126 -78 125 0
-126 78 0
-126 -125 0
127 25 124 0
-127 -25 0
-127 -124 0
128 -126 -127 0
-128 126 0
-128 127 0
129 -31 96 0
-129 31 0
-129 -96 0
130 -75 129 0
-130 75 0
-130 -129 0
131 -76 -96 0
-131 76 0
-131 96 0
132 33 131 0
-132 -33 0
-132 -131 0
133 -130 -132 0
-133 130 0
-133 132 0
134 -26 29 0
-134 26 0
-134 -29 0
135 71 -134 0
-135 -71 0
-135 134 0
136 73 96 0
-136 -73 0
-136 -96 0
137 -73 -96 0
-137 73 0
-137 96 0
138 -135 136 0
-138 135 0
-138 -136 0
139 137 -138 0
-139 -137 0
-139 138 0
140 -65 -96 0
-140 65 0
-140 96 0
141 5 140 0
-141 -5 0
-141 -140 0
142 -98 -141 0
-142 98 0
-142 141 0
143 103 123 0
-143 -103 0
-143 -123 0
144 108 113 0
-144 -108 0
-144 -113 0
145 118 128 0
-145 -118 0
-145 -128 0
146 133 139 0
-146 -133 0
-146 -139 0
147 142 -146 0
-147 -142 0
-147 146 0
148 -144 -145 0
-148 144 0
-148 145 0
149 -143 -148 0
-149 143 0
-149 148 0
150 -147 -149 0
-150 147 0
-150 149 0
151 -5 150 0
-151 5 0
-151 -150 0
152 -98 151 0
-152 98 0
-152 -151 0
153 -17 150 0
-153 17 0
-153 -150 0
154 -67 106 0
-154 67 0
-154 -106 0
155 153 -154 0
-155 -153 0
-155 154 0
156 -21 150 0
-156 21 0
-156 -150 0
157 -81 99 0
-157 81 0
-157 -99 0
158 156 -157 0
-158 -156 0
-158 157 0
159 155 158 0
-159 -155 0
-159 -158 0
160 -13 150 0
-160 13 0
-160 -150 0
161 -63 116 0
-161 63 0
-161 -116 0
162 160 -161 0
-162 -160 0
-162 161 0
163 -9 150 0
-163 9 0
-163 -150 0
164 -60 109 0
-164 60 0
-164 -109 0
165 163 -164 0
-165 -163 0
-165 164 0
166 162 165 0
-166 -162 0
-166 -165 0
167 -159 -166 0
-167 159 0
-167 166 0
168 -36 150 0
-168 36 0
-168 -150 0
169 -35 96 0
-169 35 0
-169 -96 0
170 -120 169 0
-170 120 0
-170 -169 0
171 168 -170 0
-171 -168 0
-171 170 0
172 -27 96 0
-172 27 0
-172 -96 0
173 -24 56 0
-173 24 0
-173 -56 0
174 -26 173 0
-174 26 0
-174 -173 0
175 -29 150 0
-175 29 0
-175 -150 0
176 38 175 0
-176 -38 0
-176 -175 0
177 -38 -175 0
-177 38 0
-177 175 0
178 176 177 0
-178 -176 0
-178 -177 0
179 172 -174 0
-179 -172 0
-179 174 0
180 178 -179 0
-180 -178 0
-180 179 0
181 -33 150 0
-181 33 0
-181 -150 0
182 -130 181 0
-182 130 0
-182 -181 0
183 -25 150 0
-183 25 0
-183 -150 0
184 -126 183 0
-184 126 0
-184 -183 0
185 171 182 0
-185 -171 0
-185 -182 0
186 184 -185 0
-186 -184 0
-186 185 0
187 -167 -186 0
-187 167 0
-187 186 0
188 180 -187 0
-188 -180 0
-188 187 0
189 152 188 0
-189 -152 0
-189 -188 0
190 35 -120 0
-190 -35 0
-190 120 0
191 -89 190 0
-191 89 0
-191 -190 0
192 -3 191 0
-192 3 0
-192 -191 0
193 -58 192 0
-193 58 0
-193 -192 0
194 -19 191 0
-194 19 0
-194 -191 0
195 -82 -191 0
-195 82 0
-195 191 0
196 -101 194 0
-196 101 0
-196 -194 0
197 195 -196 0
-197 -195 0
-197 196 0
198 -68 -191 0
-198 68 0
-198 191 0
199 -15 191 0
-199 15 0
-199 -191 0
200 -104 198 0
-200 104 0
-200 -198 0
201 199 -200 0
-201 -199 0
-201 200 0
202 -7 191 0
-202 7 0
-202 -191 0
203 -61 -191 0
-203 61 0
-203 191 0
204 -111 202 0
-204 111 0
-204 -202 0
205 203 -204 0
-205 -203 0
-205 204 0
206 -64 -191 0
-206 64 0
-206 191 0
207 -11 191 0
-207 11 0
-207 -191 0
208 -114 206 0
-208 114 0
-208 -206 0
209 207 -208 0
-209 -207 0
-209 208 0
210 -35 89 0
-210 35 0
-210 -89 0
211 -121 210 0
-211 121 0
-211 -210 0
212 -79 -191 0
-212 79 0
-212 191 0
213 -23 191 0
-213 23 0
-213 -191 0
214 -78 213 0
-214 78 0
-214 -213 0
215 25 212 0
-215 -25 0
-215 -212 0
216 -214 -215 0
-216 214 0
-216 215 0
217 -31 191 0
-217 31 0
-217 -191 0
218 -75 217 0
-218 75 0
-218 -217 0
219 -76 -191 0
-219 76 0
-219 191 0
220 33 219 0
-220 -33 0
-220 -219 0
221 -218 -220 0
-221 218 0
-221 220 0
222 73 191 0
-222 -73 0
-222 -191 0
223 -73 -191 0
-223 73 0
-223 191 0
224 -135 222 0
-224 135 0
-224 -222 0
225 223 -224 0
-225 -223 0
-225 224 0
226 -65 -191 0
-226 65 0
-226 191 0
227 5 226 0
-227 -5 0
-227 -226 0
228 -193 -227 0
-228 193 0
-228 227 0
229 197 211 0
-229 -197 0
-229 -211 0
230 201 205 0
-230 -201 0
-230 -205 0
231 209 216 0
-231 -209 0
-231 -216 0
232 221 225 0
-232 -221 0
-232 -225 0
233 228 -232 0
-233 -228 0
-233 232 0
234 -230 -231 0
-234 230 0
-234 231 0
235 -229 -234 0
-235 229 0
-235 234 0
236 -233 -235 0
-236 233 0
-236 235 0
237 -5 236 0
-237 5 0
-237 -236 0
238 -193 237 0
-238 193 0
-238 -237 0
239 -21 236 0
-239 21 0
-239 -236 0
240 -81 194 0
-240 81 0
-240 -194 0
241 239 -240 0
-241 -239 0
-241 240 0
242 -17 236 0
-242 17 0
-242 -236 0
243 -67 199 0
-243 67 0
-243 -199 0
244 242 -243 0
-244 -242 0
-244 243 0
245 241 244 0
-245 -241 0
-245 -244 0
246 -13 236 0
-246 13 0
-246 -236 0
247 -63 207 0
-247 63 0
-247 -207 0
248 246 -247 0
-248 -246 0
-248 247 0
249 -9 236 0
-249 9 0
-249 -236 0
250 -60 202 0
-250 60 0
-250 -202 0
251 249 -250 0
-251 -249 0
-251 250 0
252 248 251 0
-252 -248 0
-252 -251 0
253 -245 -252 0
-253 245 0
-253 252 0
254 -33 236 0
-254 33 0
-254 -236 0
255 -218 254 0
-255 218 0
-255 -254 0
256 -25 236 0
-256 25 0
-256 -236 0
257 -214 256 0
-257 214 0
-257 -256 0
258 -29 236 0
-258 29 0
-258 -236 0
259 -27 191 0
-259 27 0
-259 -191 0
260 -174 259 0
-260 174 0
-260 -259 0
261 258 -260 0
-261 -258 0
-261 260 0
262 -36 236 0
-262 36 0
-262 -236 0
263 -120 210 0
-263 120 0
-263 -210 0
264 262 -263 0
-264 -262 0
-264 263 0
265 255 257 0
-265 -255 0
-265 -257 0
266 261 264 0
-266 -261 0
-266 -264 0
267 -265 -266 0
-267 265 0
-267 266 0
268 -253 -267 0
-268 253 0
-268 267 0
269 238 268 0
-269 -238 0
-269 -268 0
270 189 269 0
-270 -189 0
-270 -269 0
271 -189 -269 0
-271 189 0
-271 269 0
272 270 271 0
-272 -270 0
-272 -271 0
273 -159 -180 0
-273 159 0
-273 180 0
274 162 -184 0
-274 -162 0
-274 184 0
275 -159 -274 0
-275 159 0
-275 274 0
276 -166 275 0
-276 166 0
-276 -275 0
277 273 -276 0
-277 -273 0
-277 276 0
278 241 -257 0
-278 -241 0
-278 257 0
279 244 -278 0
-279 -244 0
-279 278 0
280 -245 -261 0
-280 245 0
-280 261 0
281 -252 279 0
-281 252 0
-281 -279 0
282 280 -281 0
-282 -280 0
-282 281 0
283 277 282 0
-283 -277 0
-283 -282 0
284 -277 -282 0
-284 277 0
-284 282 0
285 283 284 0
-285 -283 0
-285 -284 0
286 -167 253 0
-286 167 0
-286 -253 0
287 167 -253 0
-287 -167 0
-287 253 0
288 -37 92 0
-288 37 0
-288 -92 0
289 -89 -288 0
-289 89 0
-289 288 0
290 150 236 0
-290 -150 0
-290 -236 0
291 -150 -236 0
-291 150 0
-291 236 0
292 290 291 0
-292 -290 0
-292 -291 0
293 -255 261 0
-293 255 0
-293 -261 0
294 244 278 0
-294 -244 0
-294 -278 0
295 293 -294 0
-295 -293 0
-295 294 0
296 248 295 0
-296 -248 0
-296 -295 0
297 251 296 0
-297 -251 0
-297 -296 0
298 -155 162 0
-298 155 0
-298 -162 0
299 155 162 0
-299 -155 0
-299 -162 0
300 -182 -299 0
-300 182 0
-300 299 0
301 180 -300 0
-301 -180 0
-301 300 0
302 165 298 0
-302 -165 0
-302 -298 0
303 275 -302 0
-303 -275 0
-303 302 0
304 301 -303 0
-304 -301 0
-304 303 0
305 297 -304 0
-305 -297 0
-305 304 0
306 -297 304 0
-306 297 0
-306 -304 0
307 289 292 0
-307 -289 0
-307 -292 0
308 286 -307 0
-308 -286 0
-308 307 0
309 287 -308 0
-309 -287 0
-309 308 0
310 285 -309 0
-310 -285 0
-310 309 0
311 305 306 0
-311 -305 0
-311 -306 0
312 -310 -311 0
-312 310 0
-312 311 0
313 272 -312 0
-313 -272 0
-313 312 0
39 313 0
-39 -313 0
39 0
w 1 0.500000
w 2 0.500000
w 3 0.500000
w 4 0.500000
w 5 0.500000
w 6 0.500000
w 7 0.500000
w 8 0.500000
w 9 0.500000
w 10 0.500000
w 11 0.500000
w 12 0.500000
w 13 0.500000
w 14 0.500000
w 15 0.500000
w 16 0.500000
w 17 0.500000
w 18 0.500000
w 19 0.500000
w 20 0.500000
w 21 0.500000
w 22 0.500000
w 23 0.500000
w 24 0.500000
w 25 0.500000
w 26 0.500000
w 27 0.500000
w 28 0.500000
w 29 0.500000
w 30 0.500000
w 31 0.500000
w 32 0.500000
w 33 0.500000
w 34 0.500000
w 35 0.500000
w 36 0.500000
w 37 0.125000
w 38 0.125000
w 40 -1
w 41 -1
w 42 -1
w 43 -1
w 44 -1
w 45 -1
w 46 -1
w 47 -1
w 48 -1
w 49 -1
w 50 -1
w 51 -1
w 52 -1
w 53 -1
w 54 -1
w 55 -1
w 56 -1
w 57 -1
w 58 -1
w 59 -1
w 60 -1
w 61 -1
w 62 -1
w 63 -1
w 64 -1
w 65 -1
w 66 -1
w 67 -1
w 68 -1
w 69 -1
w 70 -1
w 71 -1
w 72 -1
w 73 -1
w 74 -1
w 75 -1
w 76 -1
w 77 -1
w 78 -1
w 79 -1
w 80 -1
w 81 -1
w 82 -1
w 83 -1
w 84 -1
w 85 -1
w 86 -1
w 87 -1
w 88 -1
w 89 -1
w 90 -1
w 91 -1
w 92 -1
w 93 -1
w 94 -1
w 95 -1
w 96 -1
w 97 -1
w 98 -1
w 99 -1
w 100 -1
w 101 -1
w 102 -1
w 103 -1
w 104 -1
w 105 -1
w 106 -1
w 107 -1
w 108 -1
w 109 -1
w 110 -1
w 111 -1
w 112 -1
w 113 -1
w 114 -1
w 115 -1
w 116 -1
w 117 -1
w 118 -1
w 119 -1
w 120 -1
w 121 -1
w 122 -1
w 123 -1
w 124 -1
w 125 -1
w 126 -1
w 127 -1
w 128 -1
w 129 -1
w 130 -1
w 131 -1
w 132 -1
w 133 -1
w 134 -1
w 135 -1
w 136 -1
w 137 -1
w 138 -1
w 139 -1
w 140 -1
w 141 -1
w 142 -1
w 143 -1
w 144 -1
w 145 -1
w 146 -1
w 147 -1
w 148 -1
w 149 -1
w 150 -1
w 151 -1
w 152 -1
w 153 -1
w 154 -1
w 155 -1
w 156 -1
w 157 -1
w 158 -1
w 159 -1
w 160 -1
w 161 -1
w 162 -1
w 163 -1
w 164 -1
w 165 -1
w 166 -1
w 167 -1
w 168 -1
w 169 -1
w 170 -1
w 171 -1
w 172 -1
w 173 -1
w 174 -1
w 175 -1
w 176 -1
w 177 -1
w 178 -1
w 179 -1
w 180 -1
w 181 -1
w 182 -1
w 183 -1
w 184 -1
w 185 -1
w 186 -1
w 187 -1
w 188 -1
w 189 -1
w 190 -1
w 191 -1
w 192 -1
w 193 -1
w 194 -1
w 195 -1
w 196 -1
w 197 -1
w 198 -1
w 199 -1
w 200 -1
w 201 -1
w 202 -1
w 203 -1
w 204 -1
w 205 -1
w 206 -1
w 207 -1
w 208 -1
w 209 -1
w 210 -1
w 211 -1
w 212 -1
w 213 -1
w 214 -1
w 215 -1
w 216 -1
w 217 -1
w 218 -1
w 219 -1
w 220 -1
w 221 -1
w 222 -1
w 223 -1
w 224 -1
w 225 -1
w 226 -1
w 227 -1
w 228 -1
w 229 -1
w 230 -1
w 231 -1
w 232 -1
w 233 -1
w 234 -1
w 235 -1
w 236 -1
w 237 -1
w 238 -1
w 239 -1
w 240 -1
w 241 -1
w 242 -1
w 243 -1
w 244 -1
w 245 -1
w 246 -1
w 247 -1
w 248 -1
w 249 -1
w 250 -1
w 251 -1
w 252 -1
w 253 -1
w 254 -1
w 255 -1
w 256 -1
w 257 -1
w 258 -1
w 259 -1
w 260 -1
w 261 -1
w 262 -1
w 263 -1
w 264 -1
w 265 -1
w 266 -1
w 267 -1
w 268 -1
w 269 -1
w 270 -1
w 271 -1
w 272 -1
w 273 -1
w 274 -1
w 275 -1
w 276 -1
w 277 -1
w 278 -1
w 279 -1
w 280 -1
w 281 -1
w 282 -1
w 283 -1
w 284 -1
w 285 -1
w 286 -1
w 287 -1
w 288 -1
w 289 -1
w 290 -1
w 291 -1
w 292 -1
w 293 -1
w 294 -1
w 295 -1
w 296 -1
w 297 -1
w 298 -1
w 299 -1
w 300 -1
w 301 -1
w 302 -1
w 303 -1
w 304 -1
w 305 -1
w 306 -1
w 307 -1
w 308 -1
w 309 -1
w 310 -1
w 311 -1
w 312 -1
w 313 -1
w 39 -1
